c This is QMaxSAT 2017 based on 14.07
c This is Glucose 3.0
c This is MiniSat 2.2.0
c WARNING: for repeatability, setting FPU to use double precision
c card = mrwto, comp = 0, pmodel = 0, narr = 2, mct = 14, verb = 0
cr firstCPXsol 0 0 0
c top = 80229
c |  Number of variables:    2420                                             |
c |  Number of clauses:      156160                                           |
c |  Weight of hard clauses: 80229                                            |
c |  Number of soft clauses: 364                                              |
c |  Number of unit soft clauses: 364                                         |
c |  Maximum Cardinality (by unit): 160456       (160456      )               |
c last restart ## conflicts  :  113 812 
o 5555 | cpuTime 0.017757 s
c Sum of weights = 80228
c A number of soft clauses remained = 182
c MRWTO encoding for Pseudo-Boolean Constraints
c sizeMax=5555
c No.0 Divisor=9	generated by pow1
c No.1 Divisor=9	generated by pow1
c No.2 Divisor=9	generated by pow1
c No.3 Divisor=9	generated by pow1
c p0= 9	p1= 9	p2= 9	p3= 9	
c number of digits = 5
c linkingVar[0].size = 9, linkingVar[1].size = 9, linkingVar[2].size = 9, linkingVar[3].size = 8, linkingVar[4].size = 1, 
c Pseudo-Boolean Constraints: 4597 variables and 37096 clauses
c Sum of weights = 80228
c A number of soft clauses remained = 182
c MRWTO encoding for Pseudo-Boolean Constraints
c sizeMax=5555
c No.0 Divisor=9	generated by pow1
c No.1 Divisor=9	generated by pow1
c No.2 Divisor=9	generated by pow1
c No.3 Divisor=9	generated by pow1
c p0= 9	p1= 9	p2= 9	p3= 9	
c number of digits = 5
c linkingVar[0].size = 9, linkingVar[1].size = 9, linkingVar[2].size = 9, linkingVar[3].size = 8, linkingVar[4].size = 1, 
c Pseudo-Boolean Constraints: 4597 variables and 37096 clauses
c last restart ## conflicts  :  265 1494 
o 4075 | cpuTime 0.073095 s
c last restart ## conflicts  :  277 2080 
o 3391 | cpuTime 0.096734 s
c last restart ## conflicts  :  440 2201 
o 3032 | cpuTime 0.118216 s
c last restart ## conflicts  :  179 2411 
o 2957 | cpuTime 0.128044 s
c last restart ## conflicts  :  297 1554 
o 2684 | cpuTime 0.141972 s
c last restart ## conflicts  :  436 1217 
o 2552 | cpuTime 0.203649 s
c last restart ## conflicts  :  1188 1237 
o 2466 | cpuTime 0.452524 s
c last restart ## conflicts  :  539 1200 
o 2408 | cpuTime 0.867159 s
c last restart ## conflicts  :  205 1054 
o 2380 | cpuTime 1.06706 s
c last restart ## conflicts  :  57 2374 
o 2362 | cpuTime 1.07143 s
c last restart ## conflicts  :  517 1060 
o 2316 | cpuTime 1.48151 s
c last restart ## conflicts  :  186 1133 
o 2216 | cpuTime 1.5677 s
c last restart ## conflicts  :  140 1064 
o 2204 | cpuTime 2.24158 s
c last restart ## conflicts  :  38 1051 
o 2169 | cpuTime 2.9413 s
c last restart ## conflicts  :  990 1105 
o 2123 | cpuTime 3.45115 s
c last restart ## conflicts  :  1058 1003 
o 2109 | cpuTime 10.3763 s
c last restart ## conflicts  :  85 1040 
o 2074 | cpuTime 14.2771 s
c last restart ## conflicts  :  2031 1000 
o 2069 | cpuTime 16.9982 s
c last restart ## conflicts  :  1097 973 
o 2062 | cpuTime 20.0732 s
c last restart ## conflicts  :  422 922 
o 2060 | cpuTime 29.6098 s
c last restart ## conflicts  :  1318 1176 
o 2055 | cpuTime 41.6458 s
c last restart ## conflicts  :  703 1188 
o 2038 | cpuTime 84.9901 s
s OPTIMUM FOUND
cr positiVarArr: [ | 2@1(1->2) | 28@1(2->14) | 63@1(5->7) | 75@1(6->5) | 97@1(7->13) | 99@1(8->1) | 160@1(12->6) | 176@1(13->8) | 194@1(14->12) | 206@2(1->10) | 225@2(3->1) | 241@2(4->3) | 319@2(9->11) | 331@2(10->9) | 340@2(11->4) | ]
cr the 1-th chain: [ 1->2->14->12->6->5->7->13->8->1 ] (#non-depot=8) {#cumul.=9}
cr the 2-th chain: [ 1->10->9->11->4->3->1 ] (#non-depot=5) {#cumul.=14}
c Latest Answer = 0 by 23 loops
c restarts              : 12815
c conflicts             : 2994514        (8971 /sec)
c decisions             : 5864125        (0.00 % random) (17568 /sec)
c propagations          : 858535793      (2572081 /sec)
c conflict literals     : 203678910      (41.77 % deleted)
c Memory used           : 143.00 MB
c CPU time              : 333.79 s
